(set-logic HORN)
(declare-datatypes ((Nat_1 0)) (((Z_0 ) (S_0 (unS_0 Nat_1)))))
(declare-fun diseqNat_0 (Nat_1 Nat_1) Bool)
(declare-fun unS_1 (Nat_1 Nat_1) Bool)
(declare-fun isZ_0 (Nat_1) Bool)
(declare-fun isS_0 (Nat_1) Bool)
(assert (forall ((x_86 Nat_1) (x_85 Nat_1))
	(=> (= x_86 (S_0 x_85))
	    (unS_1 x_85 x_86))))
(assert (isZ_0 Z_0))
(assert (forall ((x_87 Nat_1))
	(isS_0 (S_0 x_87))))
(assert (forall ((x_88 Nat_1))
	(diseqNat_0 Z_0 (S_0 x_88))))
(assert (forall ((x_89 Nat_1))
	(diseqNat_0 (S_0 x_89) Z_0)))
(assert (forall ((x_90 Nat_1) (x_91 Nat_1))
	(=> (diseqNat_0 x_90 x_91)
	    (diseqNat_0 (S_0 x_90) (S_0 x_91)))))
(declare-fun add_0 (Nat_1 Nat_1 Nat_1) Bool)
(declare-fun minus_1 (Nat_1 Nat_1 Nat_1) Bool)
(declare-fun le_0 (Nat_1 Nat_1) Bool)
(declare-fun ge_0 (Nat_1 Nat_1) Bool)
(declare-fun lt_0 (Nat_1 Nat_1) Bool)
(declare-fun gt_0 (Nat_1 Nat_1) Bool)
(declare-fun mult_0 (Nat_1 Nat_1 Nat_1) Bool)
(declare-fun div_0 (Nat_1 Nat_1 Nat_1) Bool)
(declare-fun mod_0 (Nat_1 Nat_1 Nat_1) Bool)
(assert (forall ((y_14 Nat_1))
	(add_0 y_14 Z_0 y_14)))
(assert (forall ((x_83 Nat_1) (y_14 Nat_1) (r_0 Nat_1))
	(=> (add_0 r_0 x_83 y_14)
	    (add_0 (S_0 r_0) (S_0 x_83) y_14))))
(assert (forall ((y_14 Nat_1))
	(minus_1 Z_0 Z_0 y_14)))
(assert (forall ((x_83 Nat_1) (y_14 Nat_1) (r_0 Nat_1))
	(=> (minus_1 r_0 x_83 y_14)
	    (minus_1 (S_0 r_0) (S_0 x_83) y_14))))
(assert (forall ((y_14 Nat_1))
	(le_0 Z_0 y_14)))
(assert (forall ((x_83 Nat_1) (y_14 Nat_1))
	(=> (le_0 x_83 y_14)
	    (le_0 (S_0 x_83) (S_0 y_14)))))
(assert (forall ((y_14 Nat_1))
	(ge_0 y_14 Z_0)))
(assert (forall ((x_83 Nat_1) (y_14 Nat_1))
	(=> (ge_0 x_83 y_14)
	    (ge_0 (S_0 x_83) (S_0 y_14)))))
(assert (forall ((y_14 Nat_1))
	(lt_0 Z_0 (S_0 y_14))))
(assert (forall ((x_83 Nat_1) (y_14 Nat_1))
	(=> (lt_0 x_83 y_14)
	    (lt_0 (S_0 x_83) (S_0 y_14)))))
(assert (forall ((y_14 Nat_1))
	(gt_0 (S_0 y_14) Z_0)))
(assert (forall ((x_83 Nat_1) (y_14 Nat_1))
	(=> (gt_0 x_83 y_14)
	    (gt_0 (S_0 x_83) (S_0 y_14)))))
(assert (forall ((y_14 Nat_1))
	(mult_0 Z_0 Z_0 y_14)))
(assert (forall ((x_83 Nat_1) (y_14 Nat_1) (r_0 Nat_1) (z_11 Nat_1))
	(=>	(and (mult_0 r_0 x_83 y_14)
			(add_0 z_11 r_0 y_14))
		(mult_0 z_11 (S_0 x_83) y_14))))
(assert (forall ((x_83 Nat_1) (y_14 Nat_1))
	(=> (lt_0 x_83 y_14)
	    (div_0 Z_0 x_83 y_14))))
(assert (forall ((x_83 Nat_1) (y_14 Nat_1) (r_0 Nat_1) (z_11 Nat_1))
	(=>	(and (ge_0 x_83 y_14)
			(minus_1 z_11 x_83 y_14)
			(div_0 r_0 z_11 y_14))
		(div_0 (S_0 r_0) x_83 y_14))))
(assert (forall ((x_83 Nat_1) (y_14 Nat_1))
	(=> (lt_0 x_83 y_14)
	    (mod_0 x_83 x_83 y_14))))
(assert (forall ((x_83 Nat_1) (y_14 Nat_1) (r_0 Nat_1) (z_11 Nat_1))
	(=>	(and (ge_0 x_83 y_14)
			(minus_1 z_11 x_83 y_14)
			(mod_0 r_0 z_11 y_14))
		(mod_0 r_0 x_83 y_14))))
(declare-datatypes ((Nat_0 0)) (((zero_0 ) (succ_0 (p_0 Nat_0)))))
(declare-fun diseqNat_1 (Nat_0 Nat_0) Bool)
(declare-fun p_1 (Nat_0 Nat_0) Bool)
(declare-fun iszero_0 (Nat_0) Bool)
(declare-fun issucc_0 (Nat_0) Bool)
(assert (forall ((x_94 Nat_0) (x_93 Nat_0))
	(=> (= x_94 (succ_0 x_93))
	    (p_1 x_93 x_94))))
(assert (iszero_0 zero_0))
(assert (forall ((x_95 Nat_0))
	(issucc_0 (succ_0 x_95))))
(assert (forall ((x_96 Nat_0))
	(diseqNat_1 zero_0 (succ_0 x_96))))
(assert (forall ((x_97 Nat_0))
	(diseqNat_1 (succ_0 x_97) zero_0)))
(assert (forall ((x_98 Nat_0) (x_99 Nat_0))
	(=> (diseqNat_1 x_98 x_99)
	    (diseqNat_1 (succ_0 x_98) (succ_0 x_99)))))
(declare-datatypes ((list_0 0)) (((nil_0 ) (cons_0 (head_0 Nat_0) (tail_0 list_0)))))
(declare-fun diseqlist_0 (list_0 list_0) Bool)
(declare-fun head_1 (Nat_0 list_0) Bool)
(declare-fun tail_1 (list_0 list_0) Bool)
(declare-fun isnil_0 (list_0) Bool)
(declare-fun iscons_0 (list_0) Bool)
(assert (forall ((x_103 list_0) (x_101 Nat_0) (x_102 list_0))
	(=> (= x_103 (cons_0 x_101 x_102))
	    (head_1 x_101 x_103))))
(assert (forall ((x_103 list_0) (x_101 Nat_0) (x_102 list_0))
	(=> (= x_103 (cons_0 x_101 x_102))
	    (tail_1 x_102 x_103))))
(assert (isnil_0 nil_0))
(assert (forall ((x_104 Nat_0) (x_105 list_0))
	(iscons_0 (cons_0 x_104 x_105))))
(assert (forall ((x_106 Nat_0) (x_107 list_0))
	(diseqlist_0 nil_0 (cons_0 x_106 x_107))))
(assert (forall ((x_108 Nat_0) (x_109 list_0))
	(diseqlist_0 (cons_0 x_108 x_109) nil_0)))
(assert (forall ((x_110 Nat_0) (x_111 list_0) (x_112 Nat_0) (x_113 list_0))
	(=> (diseqNat_1 x_110 x_112)
	    (diseqlist_0 (cons_0 x_110 x_111) (cons_0 x_112 x_113)))))
(assert (forall ((x_110 Nat_0) (x_111 list_0) (x_112 Nat_0) (x_113 list_0))
	(=> (diseqlist_0 x_111 x_113)
	    (diseqlist_0 (cons_0 x_110 x_111) (cons_0 x_112 x_113)))))
(declare-fun take_0 (list_0 Nat_0 list_0) Bool)
(assert (forall ((x_0 Nat_0) (y_0 list_0) (z_0 Nat_0) (z_1 Nat_0) (xs_0 list_0) (x_20 list_0) (x_21 list_0))
	(=>	(and (= x_20 (cons_0 z_1 x_21))
			(take_0 x_21 z_0 xs_0)
			(= x_0 (succ_0 z_0))
			(= y_0 (cons_0 z_1 xs_0)))
		(take_0 x_20 x_0 y_0))))
(assert (forall ((x_0 Nat_0) (y_0 list_0) (z_0 Nat_0) (x_22 list_0))
	(=>	(and (= x_22 nil_0)
			(= x_0 (succ_0 z_0))
			(= y_0 nil_0))
		(take_0 x_22 x_0 y_0))))
(assert (forall ((x_0 Nat_0) (y_0 list_0) (x_23 list_0))
	(=>	(and (= x_23 nil_0)
			(= x_0 zero_0))
		(take_0 x_23 x_0 y_0))))
(declare-fun plus_0 (Nat_0 Nat_0 Nat_0) Bool)
(assert (forall ((x_1 Nat_0) (y_1 Nat_0) (z_2 Nat_0) (x_24 Nat_0) (x_25 Nat_0))
	(=>	(and (= x_24 (succ_0 x_25))
			(plus_0 x_25 z_2 y_1)
			(= x_1 (succ_0 z_2)))
		(plus_0 x_24 x_1 y_1))))
(assert (forall ((x_1 Nat_0) (y_1 Nat_0) (x_26 Nat_0))
	(=>	(and (= x_26 y_1)
			(= x_1 zero_0))
		(plus_0 x_26 x_1 y_1))))
(declare-fun minus_0 (Nat_0 Nat_0 Nat_0) Bool)
(assert (forall ((x_2 Nat_0) (y_2 Nat_0) (z_3 Nat_0) (y_3 Nat_0) (x_27 Nat_0) (x_28 Nat_0))
	(=>	(and (= x_27 x_28)
			(minus_0 x_28 z_3 y_3)
			(= x_2 (succ_0 z_3))
			(= y_2 (succ_0 y_3)))
		(minus_0 x_27 x_2 y_2))))
(assert (forall ((x_2 Nat_0) (y_2 Nat_0) (z_3 Nat_0) (x_29 Nat_0))
	(=>	(and (= x_29 zero_0)
			(= x_2 (succ_0 z_3))
			(= y_2 zero_0))
		(minus_0 x_29 x_2 y_2))))
(assert (forall ((x_2 Nat_0) (y_2 Nat_0) (x_30 Nat_0))
	(=>	(and (= x_30 zero_0)
			(= x_2 zero_0))
		(minus_0 x_30 x_2 y_2))))
(declare-fun nmsorttdhalf_0 (Nat_0 Nat_0) Bool)
(assert (forall ((x_3 Nat_0) (x_31 Nat_0))
	(=>	(and (= x_31 zero_0)
			(= x_3 (succ_0 zero_0)))
		(nmsorttdhalf_0 x_31 x_3))))
(assert (forall ((x_3 Nat_0) (y_4 Nat_0) (x_32 Nat_0) (x_33 Nat_0) (x_34 Nat_0) (x_35 Nat_0))
	(=>	(and (= x_32 x_35)
			(minus_0 x_33 (succ_0 y_4) (succ_0 (succ_0 zero_0)))
			(nmsorttdhalf_0 x_34 x_33)
			(plus_0 x_35 (succ_0 zero_0) x_34)
			(diseqNat_1 x_3 (succ_0 zero_0))
			(= x_3 (succ_0 y_4)))
		(nmsorttdhalf_0 x_32 x_3))))
(assert (forall ((x_3 Nat_0) (x_36 Nat_0))
	(=>	(and (= x_36 zero_0)
			(= x_3 (succ_0 zero_0)))
		(nmsorttdhalf_0 x_36 x_3))))
(assert (forall ((x_3 Nat_0) (x_37 Nat_0))
	(=>	(and (= x_37 zero_0)
			(diseqNat_1 x_3 (succ_0 zero_0))
			(= x_3 zero_0))
		(nmsorttdhalf_0 x_37 x_3))))
(declare-fun leq_0 (Bool Nat_0 Nat_0) Bool)
(assert (forall ((x_4 Nat_0) (y_5 Nat_0) (z_4 Nat_0) (x_5 Nat_0) (x_38 Bool) (x_39 Bool))
	(=>	(and (= x_38 x_39)
			(leq_0 x_39 z_4 x_5)
			(= x_4 (succ_0 z_4))
			(= y_5 (succ_0 x_5)))
		(leq_0 x_38 x_4 y_5))))
(assert (forall ((x_4 Nat_0) (y_5 Nat_0) (z_4 Nat_0) (x_40 Bool))
	(=>	(and (= x_40 false)
			(= x_4 (succ_0 z_4))
			(= y_5 zero_0))
		(leq_0 x_40 x_4 y_5))))
(assert (forall ((x_4 Nat_0) (y_5 Nat_0) (x_41 Bool))
	(=>	(and (= x_41 true)
			(= x_4 zero_0))
		(leq_0 x_41 x_4 y_5))))
(declare-fun lmerge_0 (list_0 list_0 list_0) Bool)
(assert (forall ((x_6 list_0) (y_6 list_0) (z_5 Nat_0) (x_7 list_0) (x_8 Nat_0) (x_9 list_0) (x_43 list_0) (x_44 list_0) (x_42 Bool))
	(=>	(and (= x_43 (cons_0 z_5 x_44))
			(lmerge_0 x_44 x_7 (cons_0 x_8 x_9))
			(= x_6 (cons_0 z_5 x_7))
			(= y_6 (cons_0 x_8 x_9))
			(= x_42 true)
			(leq_0 x_42 z_5 x_8))
		(lmerge_0 x_43 x_6 y_6))))
(assert (forall ((x_6 list_0) (y_6 list_0) (z_5 Nat_0) (x_7 list_0) (x_8 Nat_0) (x_9 list_0) (x_46 list_0) (x_47 list_0) (x_45 Bool))
	(=>	(and (= x_46 (cons_0 x_8 x_47))
			(lmerge_0 x_47 (cons_0 z_5 x_7) x_9)
			(= x_6 (cons_0 z_5 x_7))
			(= y_6 (cons_0 x_8 x_9))
			(= x_45 false)
			(leq_0 x_45 z_5 x_8))
		(lmerge_0 x_46 x_6 y_6))))
(assert (forall ((x_6 list_0) (y_6 list_0) (z_5 Nat_0) (x_7 list_0) (x_48 list_0))
	(=>	(and (= x_48 (cons_0 z_5 x_7))
			(= x_6 (cons_0 z_5 x_7))
			(= y_6 nil_0))
		(lmerge_0 x_48 x_6 y_6))))
(assert (forall ((x_6 list_0) (y_6 list_0) (x_49 list_0))
	(=>	(and (= x_49 y_6)
			(= x_6 nil_0))
		(lmerge_0 x_49 x_6 y_6))))
(declare-fun ordered_0 (Bool list_0) Bool)
(assert (forall ((x_10 list_0) (y_7 Nat_0) (z_6 list_0) (y_8 Nat_0) (xs_1 list_0) (x_50 Bool) (x_51 Bool) (x_52 Bool))
	(=>	(and (= x_50 (and x_51 x_52))
			(leq_0 x_51 y_7 y_8)
			(ordered_0 x_52 (cons_0 y_8 xs_1))
			(= x_10 (cons_0 y_7 z_6))
			(= z_6 (cons_0 y_8 xs_1)))
		(ordered_0 x_50 x_10))))
(assert (forall ((x_10 list_0) (y_7 Nat_0) (z_6 list_0) (x_53 Bool))
	(=>	(and (= x_53 true)
			(= x_10 (cons_0 y_7 z_6))
			(= z_6 nil_0))
		(ordered_0 x_53 x_10))))
(assert (forall ((x_10 list_0) (x_54 Bool))
	(=>	(and (= x_54 true)
			(= x_10 nil_0))
		(ordered_0 x_54 x_10))))
(declare-fun length_0 (Nat_0 list_0) Bool)
(assert (forall ((x_11 list_0) (y_9 Nat_0) (l_0 list_0) (x_55 Nat_0) (x_56 Nat_0) (x_57 Nat_0))
	(=>	(and (= x_55 x_57)
			(length_0 x_56 l_0)
			(plus_0 x_57 (succ_0 zero_0) x_56)
			(= x_11 (cons_0 y_9 l_0)))
		(length_0 x_55 x_11))))
(assert (forall ((x_11 list_0) (x_58 Nat_0))
	(=>	(and (= x_58 zero_0)
			(= x_11 nil_0))
		(length_0 x_58 x_11))))
(declare-fun drop_0 (list_0 Nat_0 list_0) Bool)
(assert (forall ((x_12 Nat_0) (y_10 list_0) (z_7 Nat_0) (z_8 Nat_0) (xs_2 list_0) (x_59 list_0) (x_60 list_0))
	(=>	(and (= x_59 x_60)
			(drop_0 x_60 z_7 xs_2)
			(= x_12 (succ_0 z_7))
			(= y_10 (cons_0 z_8 xs_2)))
		(drop_0 x_59 x_12 y_10))))
(assert (forall ((x_12 Nat_0) (y_10 list_0) (z_7 Nat_0) (x_61 list_0))
	(=>	(and (= x_61 nil_0)
			(= x_12 (succ_0 z_7))
			(= y_10 nil_0))
		(drop_0 x_61 x_12 y_10))))
(assert (forall ((x_12 Nat_0) (y_10 list_0) (x_62 list_0))
	(=>	(and (= x_62 y_10)
			(= x_12 zero_0))
		(drop_0 x_62 x_12 y_10))))
(declare-fun nmsorttd_0 (list_0 list_0) Bool)
(assert (forall ((x_13 list_0) (y_11 Nat_0) (z_9 list_0) (x_14 Nat_0) (x_15 list_0) (k_0 Nat_0) (x_65 list_0) (x_66 list_0) (x_67 list_0) (x_68 list_0) (x_69 list_0) (x_70 list_0) (x_63 Nat_0) (x_64 Nat_0))
	(=>	(and (= x_65 x_70)
			(take_0 x_66 k_0 (cons_0 y_11 (cons_0 x_14 x_15)))
			(nmsorttd_0 x_67 x_66)
			(drop_0 x_68 k_0 (cons_0 y_11 (cons_0 x_14 x_15)))
			(nmsorttd_0 x_69 x_68)
			(lmerge_0 x_70 x_67 x_69)
			(= x_13 (cons_0 y_11 z_9))
			(= z_9 (cons_0 x_14 x_15))
			(= k_0 x_64)
			(length_0 x_63 (cons_0 y_11 (cons_0 x_14 x_15)))
			(nmsorttdhalf_0 x_64 x_63))
		(nmsorttd_0 x_65 x_13))))
(assert (forall ((x_13 list_0) (y_11 Nat_0) (z_9 list_0) (x_71 list_0))
	(=>	(and (= x_71 (cons_0 y_11 nil_0))
			(= x_13 (cons_0 y_11 z_9))
			(= z_9 nil_0))
		(nmsorttd_0 x_71 x_13))))
(assert (forall ((x_13 list_0) (x_72 list_0))
	(=>	(and (= x_72 nil_0)
			(= x_13 nil_0))
		(nmsorttd_0 x_72 x_13))))
(assert (forall ((x_16 Nat_0) (y_12 Nat_0) (z_10 Nat_0) (x_73 Nat_0) (x_74 Nat_0) (x_75 Nat_0) (x_76 Nat_0))
	(=>	(and (diseqNat_1 x_74 x_76)
			(plus_0 x_73 y_12 z_10)
			(plus_0 x_74 x_16 x_73)
			(plus_0 x_75 x_16 y_12)
			(plus_0 x_76 x_75 z_10))
		false)))
(assert (forall ((x_17 Nat_0) (y_13 Nat_0) (x_77 Nat_0) (x_78 Nat_0))
	(=>	(and (diseqNat_1 x_77 x_78)
			(plus_0 x_77 x_17 y_13)
			(plus_0 x_78 y_13 x_17))
		false)))
(assert (forall ((x_18 Nat_0) (x_79 Nat_0))
	(=>	(and (diseqNat_1 x_79 x_18)
			(plus_0 x_79 x_18 zero_0))
		false)))
(assert (forall ((x_19 Nat_0) (x_80 Nat_0))
	(=>	(and (diseqNat_1 x_80 x_19)
			(plus_0 x_80 zero_0 x_19))
		false)))
(assert (forall ((xs_3 list_0) (x_81 list_0) (x_82 Bool))
	(=>	(and (= x_82 false)
			(nmsorttd_0 x_81 xs_3)
			(ordered_0 x_82 x_81))
		false)))
(check-sat)
